100
32
32
13
27
26
24
26
1
14
1
26
8
9
26
19
11
15
10
7
21
2
2
1
17
2
2
15
1
1
1
16
8
6
1
1
1
1
3
5
2
3
2
1
19
2
1
3
1
3
6
2
1
2
1
2
2
4
1
2
18
1
6
17
1
2
1
1
1
3
1
1
1
17
1
2
1
2
1
1
1
19
2
1
1
19
1
1
2
1
4
1
3
17
1
1
3
1
3
5
1
1